
Gurobi 10.0.1 (mac64[arm]) logging started Mon Sep 18 23:06:37 2023

Set parameter LogFile to value "scenario_returns/returns_gamma/results/M_j_c_0/mip_log.txt"
Gurobi Optimizer version 10.0.1 build v10.0.1rc0 (mac64[arm])

CPU model: Apple M1
Thread count: 8 physical cores, 8 logical processors, using up to 8 threads

Optimize a model with 5082 rows, 18879 columns and 74316 nonzeros
Model fingerprint: 0xe2ad347c
Model has 26934 general constraints
Variable types: 3 continuous, 18876 integer (1224 binary)
Coefficient statistics:
  Matrix range     [6e-02, 3e+05]
  Objective range  [9e-02, 2e+05]
  Bounds range     [1e+00, 2e+07]
  RHS range        [2e+03, 2e+04]
  GenCon rhs range [1e+00, 1e+00]
  GenCon coe range [1e+00, 1e+00]

MIP start from previous solve did not produce a new incumbent solution
Processed MIP start in 3.23 seconds (3.69 work units)

Presolve removed 3432 rows and 12959 columns
Presolve time: 0.46s
Presolved: 1650 rows, 5920 columns, 23673 nonzeros
Presolved model has 4 SOS constraint(s)
Variable types: 0 continuous, 5920 integer (34 binary)

Root relaxation: objective 6.947212e+07, 6121 iterations, 0.05 seconds (0.07 work units)

    Nodes    |    Current Node    |     Objective Bounds      |     Work
 Expl Unexpl |  Obj  Depth IntInf | Incumbent    BestBd   Gap | It/Node Time

     0     0 6.9472e+07    0  412          - 6.9472e+07      -     -    3s
H    0     0                    7.506960e+07 6.9472e+07  7.46%     -    3s
H    0     0                    7.356798e+07 7.0702e+07  3.90%     -    3s
     0     0 7.0763e+07    0  757 7.3568e+07 7.0763e+07  3.81%     -    3s
     0     0 7.0832e+07    0  748 7.3568e+07 7.0832e+07  3.72%     -    3s
     0     0 7.0834e+07    0  773 7.3568e+07 7.0834e+07  3.72%     -    3s
     0     0 7.0913e+07    0  637 7.3568e+07 7.0913e+07  3.61%     -    4s
H    0     0                    7.356797e+07 7.0913e+07  3.61%     -    4s
     0     0 7.0954e+07    0  813 7.3568e+07 7.0954e+07  3.55%     -    4s
     0     0 7.0987e+07    0  837 7.3568e+07 7.0987e+07  3.51%     -    4s
     0     0 7.0987e+07    0  845 7.3568e+07 7.0987e+07  3.51%     -    4s
     0     0 7.1009e+07    0  766 7.3568e+07 7.1009e+07  3.48%     -    4s
     0     0 7.1031e+07    0  765 7.3568e+07 7.1031e+07  3.45%     -    4s
H    0     0                    7.356797e+07 7.1031e+07  3.45%     -    4s
H    0     0                    7.356793e+07 7.1031e+07  3.45%     -    4s
     0     2 7.1031e+07    0  750 7.3568e+07 7.1031e+07  3.45%     -    4s
H   33    37                    7.223052e+07 7.1603e+07  0.87%   564    4s
H   37    37                    7.183547e+07 7.1603e+07  0.32%   521    4s

Cutting planes:
  Gomory: 4
  Implied bound: 331
  MIR: 93
  Relax-and-lift: 102

Explored 93 nodes (35744 simplex iterations) in 4.92 seconds (6.30 work units)
Thread count was 8 (of 8 available processors)

Solution count 7: 7.18355e+07 7.22305e+07 7.35679e+07 ... 7.50696e+07

Optimal solution found (tolerance 1.00e-04)
Best objective 7.183546921350e+07, best bound 7.183546438544e+07, gap 0.0000%
